65
2 0 1
3 0 1
4 3 1
5 1 1
5 2 1
5 4 1
6 0 1
6 3 1
6 5 1
7 0 1
7 1 1
7 5 1
8 0 1
8 1 1
8 2 1
8 7 1
9 1 1
9 2 1
9 4 1
9 6 1
9 7 1
10 0 1
10 4 1
10 7 1
10 9 1
11 1 1
11 3 1
11 5 1
11 6 1
11 8 1
12 0 1
12 2 1
12 3 1
12 5 1
12 6 1
12 7 1
12 10 1
13 2 1
13 8 1
13 9 1
13 10 1
13 11 1
13 12 1
14 1 1
14 2 1
14 4 1
14 5 1
14 7 1
14 9 1
14 11 1
14 12 1
15 1 1
15 3 1
15 5 1
15 6 1
15 7 1
15 10 1
15 11 1
15 13 1
15 14 1
16 0 1
16 4 1
16 7 1
16 8 1
16 12 1
16 14 1
17 3 1
17 4 1
17 5 1
17 6 1
17 10 1
17 11 1
17 12 1
17 14 1
17 15 1
18 2 1
18 5 1
18 7 1
18 8 1
18 9 1
18 11 1
18 12 1
18 13 1
18 14 1
18 15 1
18 16 1
19 1 1
19 2 1
19 3 1
19 5 1
19 7 1
19 8 1
19 9 1
19 10 1
19 15 1
19 16 1
19 17 1
19 18 1
20 1 1
20 3 1
20 7 1
20 8 1
20 10 1
20 12 1
20 15 1
20 17 1
20 18 1
21 1 1
21 4 1
21 9 1
21 12 1
21 14 1
21 16 1
21 17 1
21 20 1
22 8 1
22 10 1
22 15 1
22 17 1
22 18 1
22 21 1
23 0 1
23 2 1
23 3 1
23 5 1
23 7 1
23 8 1
23 11 1
23 13 1
23 16 1
23 17 1
23 19 1
23 20 1
24 4 1
24 6 1
24 8 1
24 9 1
24 11 1
24 13 1
24 14 1
24 15 1
24 16 1
24 21 1
24 23 1
25 1 1
25 4 1
25 5 1
25 9 1
25 10 1
25 12 1
25 16 1
25 24 1
26 0 1
26 1 1
26 2 1
26 3 1
26 6 1
26 7 1
26 10 1
26 12 1
26 13 1
26 14 1
26 15 1
26 16 1
26 18 1
26 19 1
26 23 1
27 1 1
27 2 1
27 8 1
27 12 1
27 14 1
27 19 1
27 21 1
27 22 1
27 24 1
27 25 1
28 1 1
28 5 1
28 7 1
28 11 1
28 12 1
28 13 1
28 15 1
28 18 1
28 19 1
28 21 1
28 24 1
28 25 1
28 26 1
28 27 1
29 1 1
29 2 1
29 3 1
29 4 1
29 7 1
29 9 1
29 10 1
29 11 1
29 12 1
29 15 1
29 17 1
29 18 1
29 19 1
29 20 1
29 23 1
29 24 1
29 27 1
29 28 1
30 0 1
30 1 1
30 3 1
30 5 1
30 6 1
30 7 1
30 12 1
30 15 1
30 16 1
30 20 1
30 21 1
30 23 1
30 25 1
30 26 1
30 28 1
30 29 1
31 0 1
31 5 1
31 7 1
31 11 1
31 16 1
31 17 1
31 23 1
31 24 1
31 25 1
31 27 1
31 28 1
32 0 1
32 2 1
32 5 1
32 7 1
32 8 1
32 9 1
32 12 1
32 13 1
32 14 1
32 17 1
32 19 1
32 20 1
32 21 1
32 25 1
32 30 1
33 0 1
33 1 1
33 4 1
33 5 1
33 7 1
33 8 1
33 13 1
33 14 1
33 15 1
33 16 1
33 17 1
33 19 1
33 22 1
33 23 1
33 26 1
33 27 1
33 30 1
34 4 1
34 5 1
34 6 1
34 7 1
34 10 1
34 12 1
34 13 1
34 14 1
34 15 1
34 16 1
34 17 1
34 18 1
34 19 1
34 20 1
34 21 1
34 22 1
34 23 1
34 27 1
34 31 1
34 33 1
35 0 1
35 5 1
35 6 1
35 7 1
35 8 1
35 10 1
35 14 1
35 15 1
35 18 1
35 19 1
35 21 1
35 22 1
35 23 1
35 24 1
35 26 1
35 27 1
35 28 1
35 30 1
35 31 1
35 32 1
35 34 1
36 0 1
36 1 1
36 3 1
36 4 1
36 6 1
36 10 1
36 11 1
36 12 1
36 13 1
36 16 1
36 19 1
36 22 1
36 24 1
36 25 1
36 28 1
36 30 1
36 31 1
36 32 1
36 35 1
37 0 1
37 5 1
37 7 1
37 10 1
37 15 1
37 16 1
37 19 1
37 20 1
37 22 1
37 25 1
37 30 1
37 31 1
37 32 1
37 34 1
38 3 1
38 4 1
38 7 1
38 9 1
38 10 1
38 12 1
38 13 1
38 14 1
38 16 1
38 20 1
38 23 1
38 27 1
38 28 1
38 29 1
38 30 1
38 32 1
38 33 1
38 36 1
39 3 1
39 4 1
39 5 1
39 8 1
39 9 1
39 10 1
39 14 1
39 16 1
39 17 1
39 20 1
39 22 1
39 23 1
39 25 1
39 26 1
39 27 1
39 28 1
39 30 1
39 36 1
39 37 1
39 38 1
40 0 1
40 1 1
40 2 1
40 3 1
40 4 1
40 6 1
40 7 1
40 8 1
40 11 1
40 13 1
40 14 1
40 16 1
40 20 1
40 22 1
40 23 1
40 26 1
40 27 1
40 28 1
40 32 1
40 33 1
40 34 1
40 35 1
40 36 1
40 39 1
41 1 1
41 5 1
41 6 1
41 8 1
41 10 1
41 11 1
41 12 1
41 13 1
41 14 1
41 17 1
41 18 1
41 19 1
41 22 1
41 24 1
41 27 1
41 31 1
41 32 1
41 35 1
41 37 1
41 38 1
42 0 1
42 1 1
42 2 1
42 4 1
42 5 1
42 6 1
42 8 1
42 9 1
42 11 1
42 15 1
42 20 1
42 22 1
42 23 1
42 24 1
42 25 1
42 30 1
42 32 1
42 33 1
42 36 1
42 37 1
42 38 1
42 40 1
42 41 1
43 0 1
43 1 1
43 3 1
43 4 1
43 7 1
43 8 1
43 10 1
43 13 1
43 15 1
43 16 1
43 17 1
43 19 1
43 21 1
43 23 1
43 24 1
43 26 1
43 27 1
43 30 1
43 31 1
43 33 1
43 34 1
43 35 1
43 37 1
43 40 1
43 41 1
44 1 1
44 3 1
44 5 1
44 7 1
44 9 1
44 11 1
44 14 1
44 15 1
44 18 1
44 20 1
44 21 1
44 22 1
44 23 1
44 24 1
44 27 1
44 29 1
44 31 1
44 32 1
44 33 1
44 39 1
44 42 1
45 1 1
45 3 1
45 4 1
45 6 1
45 7 1
45 10 1
45 13 1
45 15 1
45 17 1
45 20 1
45 21 1
45 23 1
45 25 1
45 27 1
45 29 1
45 30 1
45 33 1
45 34 1
45 41 1
45 42 1
45 44 1
46 0 1
46 4 1
46 6 1
46 8 1
46 10 1
46 12 1
46 13 1
46 15 1
46 16 1
46 18 1
46 20 1
46 21 1
46 22 1
46 23 1
46 25 1
46 26 1
46 27 1
46 29 1
46 31 1
46 32 1
46 34 1
46 37 1
46 40 1
46 41 1
46 42 1
46 44 1
46 45 1
47 4 1
47 10 1
47 13 1
47 14 1
47 17 1
47 20 1
47 21 1
47 22 1
47 23 1
47 24 1
47 26 1
47 29 1
47 31 1
47 33 1
47 35 1
47 39 1
47 42 1
47 45 1
48 2 1
48 4 1
48 5 1
48 8 1
48 10 1
48 12 1
48 13 1
48 14 1
48 17 1
48 18 1
48 19 1
48 21 1
48 24 1
48 28 1
48 29 1
48 31 1
48 33 1
48 34 1
48 37 1
48 39 1
48 40 1
48 42 1
48 44 1
48 46 1
49 2 1
49 8 1
49 9 1
49 13 1
49 14 1
49 16 1
49 18 1
49 20 1
49 23 1
49 24 1
49 31 1
49 32 1
49 34 1
49 36 1
49 37 1
49 38 1
49 40 1
49 42 1
49 44 1
49 46 1
49 48 1
50 0 1
50 1 1
50 3 1
50 9 1
50 11 1
50 13 1
50 19 1
50 20 1
50 21 1
50 28 1
50 29 1
50 30 1
50 33 1
50 34 1
50 36 1
50 39 1
50 40 1
50 41 1
50 43 1
50 44 1
50 45 1
50 49 1
51 0 1
51 1 1
51 4 1
51 5 1
51 8 1
51 9 1
51 10 1
51 12 1
51 13 1
51 15 1
51 17 1
51 20 1
51 24 1
51 30 1
51 32 1
51 33 1
51 37 1
51 41 1
51 43 1
51 45 1
51 48 1
51 49 1
51 50 1
52 4 1
52 7 1
52 11 1
52 13 1
52 14 1
52 15 1
52 19 1
52 20 1
52 22 1
52 23 1
52 24 1
52 26 1
52 30 1
52 31 1
52 32 1
52 36 1
52 39 1
52 40 1
52 43 1
52 45 1
52 47 1
52 48 1
52 50 1
52 51 1
53 4 1
53 7 1
53 9 1
53 12 1
53 14 1
53 18 1
53 21 1
53 23 1
53 24 1
53 25 1
53 26 1
53 29 1
53 30 1
53 31 1
53 32 1
53 35 1
53 37 1
53 38 1
53 40 1
53 46 1
53 48 1
54 1 1
54 4 1
54 5 1
54 6 1
54 7 1
54 8 1
54 9 1
54 10 1
54 12 1
54 17 1
54 20 1
54 21 1
54 23 1
54 25 1
54 29 1
54 30 1
54 31 1
54 35 1
54 36 1
54 37 1
54 38 1
54 39 1
54 40 1
54 42 1
54 43 1
54 44 1
54 45 1
54 46 1
54 48 1
54 49 1
54 50 1
54 51 1
55 0 1
55 2 1
55 3 1
55 7 1
55 8 1
55 10 1
55 11 1
55 12 1
55 13 1
55 15 1
55 18 1
55 20 1
55 24 1
55 26 1
55 27 1
55 28 1
55 30 1
55 31 1
55 32 1
55 33 1
55 34 1
55 35 1
55 36 1
55 37 1
55 39 1
55 44 1
55 46 1
55 47 1
55 49 1
55 51 1
55 53 1
55 54 1
56 1 1
56 4 1
56 5 1
56 6 1
56 10 1
56 17 1
56 18 1
56 19 1
56 20 1
56 21 1
56 23 1
56 25 1
56 26 1
56 28 1
56 31 1
56 32 1
56 34 1
56 35 1
56 36 1
56 39 1
56 42 1
56 44 1
56 48 1
56 51 1
56 52 1
56 54 1
56 55 1
57 2 1
57 7 1
57 8 1
57 10 1
57 11 1
57 12 1
57 14 1
57 22 1
57 23 1
57 25 1
57 26 1
57 28 1
57 31 1
57 32 1
57 33 1
57 34 1
57 35 1
57 36 1
57 38 1
57 39 1
57 40 1
57 42 1
57 45 1
57 54 1
57 56 1
58 0 1
58 1 1
58 2 1
58 3 1
58 6 1
58 10 1
58 12 1
58 13 1
58 14 1
58 17 1
58 18 1
58 19 1
58 31 1
58 32 1
58 33 1
58 34 1
58 40 1
58 42 1
58 47 1
58 48 1
58 51 1
58 52 1
58 54 1
58 55 1
58 57 1
59 4 1
59 5 1
59 6 1
59 9 1
59 13 1
59 14 1
59 15 1
59 16 1
59 19 1
59 20 1
59 22 1
59 23 1
59 25 1
59 27 1
59 28 1
59 29 1
59 31 1
59 32 1
59 33 1
59 34 1
59 37 1
59 38 1
59 45 1
59 47 1
59 48 1
59 49 1
59 50 1
59 51 1
59 52 1
59 53 1
59 54 1
59 55 1
59 56 1
59 57 1
59 58 1
60 0 1
60 2 1
60 3 1
60 4 1
60 7 1
60 8 1
60 9 1
60 10 1
60 11 1
60 15 1
60 16 1
60 19 1
60 22 1
60 25 1
60 31 1
60 33 1
60 34 1
60 36 1
60 38 1
60 39 1
60 40 1
60 41 1
60 42 1
60 43 1
60 44 1
60 45 1
60 46 1
60 48 1
60 49 1
60 50 1
60 51 1
60 52 1
60 54 1
60 55 1
60 58 1
60 59 1
61 1 1
61 2 1
61 3 1
61 4 1
61 8 1
61 13 1
61 14 1
61 16 1
61 19 1
61 22 1
61 23 1
61 27 1
61 29 1
61 31 1
61 33 1
61 35 1
61 36 1
61 37 1
61 38 1
61 39 1
61 40 1
61 42 1
61 43 1
61 44 1
61 45 1
61 47 1
61 51 1
61 53 1
61 54 1
61 57 1
61 60 1
62 0 1
62 1 1
62 2 1
62 4 1
62 9 1
62 10 1
62 11 1
62 13 1
62 16 1
62 20 1
62 21 1
62 22 1
62 24 1
62 25 1
62 26 1
62 27 1
62 29 1
62 32 1
62 33 1
62 34 1
62 35 1
62 36 1
62 40 1
62 41 1
62 43 1
62 46 1
62 47 1
62 48 1
62 52 1
62 53 1
62 54 1
62 55 1
62 60 1
63 0 1
63 1 1
63 2 1
63 3 1
63 4 1
63 5 1
63 6 1
63 7 1
63 8 1
63 9 1
63 11 1
63 12 1
63 13 1
63 14 1
63 15 1
63 16 1
63 17 1
63 19 1
63 20 1
63 25 1
63 26 1
63 31 1
63 32 1
63 33 1
63 39 1
63 44 1
63 45 1
63 46 1
63 47 1
63 48 1
63 52 1
63 55 1
63 56 1
63 57 1
63 59 1
63 61 1
63 62 1
64 3 1
64 4 1
64 5 1
64 12 1
64 15 1
64 19 1
64 20 1
64 24 1
64 33 1
64 36 1
64 37 1
64 38 1
64 40 1
64 43 1
64 44 1
64 45 1
64 46 1
64 49 1
64 50 1
64 51 1
64 52 1
64 54 1
64 56 1
64 57 1
64 59 1
